%%% static parameters %%%
timespan = 1;
Clients_N = [1000];
Demand_W = [15];
Lt0 = [4];
Lt1 = [4];
SS_ = [0.85];
DS_D = [20];
K = [200];
MA = [500];
HC = [0.05];
%%% dynamic parameters %%%
lost_ratio_sales_ret_th = 0.005527918415336935;
lost_ratio_sales_ret_w = 77;
lost_ratio_sales_dis_th = 0.0002232917267339085;
lost_ratio_sales_dis_w = 59;
lost_ratio_sales_fac_th = 0.004444804297802405;
lost_ratio_sales_fac_w = 91;
stock_customer_MA_mean_relative_th = 0.5448210800748801;
stock_customer_MA_mean_relative_w = 51;
stock_distributor_MA_mean_relative_th = 0.20333026116820285;
stock_distributor_MA_mean_relative_w = 58;
stock_retailer_MA_mean_relative_th = 0.40484481084748725;
stock_retailer_MA_mean_relative_w = 22;
stock_factory_MA_mean_relative_th = 0.30013862080616394;
stock_factory_MA_mean_relative_w = 99;
